% demand
num_movements = 28;
loading_factor = [800, 1400, 2000, 1900, 900, 800, 1550, 950, 900, 850, 1100, 1450, 1550, 1000, 2000, 1350, 1800, 1700, 1150, 1100, 1400, 1350, 950, 1800, 1350, 1600, 1950, 1050];
pickup_time = [0, 0, 0, 0, 0, 1, 1, 1, 1, 2, 2, 3, 4, 4, 4, 7, 8, 8, 9, 10, 10, 10, 11, 11, 11, 13, 13, 13];
delivery_time = [7, 1, 1, 1, 3, 3, 3, 2, 4, 3, 8, 4, 8, 10, 7, 10, 10, 10, 10, 11, 11, 12, 12, 14, 12, 14, 14, 14];

% transporter definition
total_capacity = 7000;
num_decks = 3;
capacity = [3000, 1000, 3000];

% ways out of decks
num_ways_out = 1;
paths_out = array3d(decks, ways_out, decks, [
% ways out of deck d1
2, 3, 0, 

% ways out of deck d2
3, 0, 0, 

% ways out of deck d3
0, 0, 0,	

]);

